
%FILE DATA:	Soccer Computational Problem for MiniZinc Models	%
%AUTHOR:	Jack Wall	%
%CONTACT:  	116397063@umail.ucc.ie			%
%LAST UPDATE:	02/24/2020, 18:47:36						%
%DESCRIPTION: 	18 games played with 12 games left				%


n=6; %number of teams

%Games to play
games=[|6,4|4,6|6,2|5,2|3,5|2,1|1,4|5,4|5,1|6,3|3,2|4,2|];

%Initial points
iPoints=[12,5,11,10,4,8];

%POSITION CONSTRAINTS
% [|teamID, operator, position|...]
% operators index:
%  1 for =  operator
%  2 for >  operator
%  3 for >= operator
%  4 for <  operator
%  5 for <= operator
positionConstraints=[|4,3,1|6,5,2|3,2,2|1,5,4|];